(set-logic HORN)
(set-info :source |
    Benchmark: 
    Output by Princess (http://www.philipp.ruemmer.org/princess.shtml)
|)
(declare-heap Heap Addr HeapObject
 defObj
 ((HeapObject 0) (node 0)) (
  (
   (O_Int (getInt Int))
   (O_UInt (getUInt Int))
   (O_Addr (getAddr Addr))
   (O_AddrRange (getAddrRange AddrRange))
   (O_node (getnode node))
   (defObj)
  )
  (
   (node (|node::next| Addr) (|node::stock| Int) (|node::order| Int))
  )
))
(declare-fun _Glue2 (Heap Addr Addr HeapObject) Bool)
(declare-fun _Glue5 (Addr Int Addr Heap HeapObject) Bool)
(declare-fun inv_main574_5_1 (Heap Addr) Bool)
(declare-fun Inv_Heap_exp_exp (Addr Addr Int Int) Bool)
(declare-fun _Glue7 (Heap Addr Addr HeapObject) Bool)
(declare-fun inv_main584_5 (Heap Addr Addr) Bool)
(declare-fun inv_main_15 (Heap Addr) Bool)
(declare-fun _Glue9 (Heap Addr Addr HeapObject) Bool)
(declare-fun _Glue0 (Int Addr Heap Addr HeapObject) Bool)
(assert (forall ((var0 Addr) (var1 Heap)) (or (not (inv_main574_5_1 var1 var0)) (inv_main574_5_1 var1 var0))))
(assert (forall ((var0 Addr) (var1 Addr) (var2 Heap)) (or (not (and (inv_main574_5_1 var2 var1) (= var0 var1))) (inv_main584_5 var2 var0 var1))))
(assert (forall ((var0 Addr) (var1 HeapObject) (var2 node) (var3 Heap) (var4 Int) (var5 Int) (var6 Addr) (var7 Addr)) (not (and (and (Inv_Heap_exp_exp var7 var6 var5 var4) (inv_main_15 var3 var7)) (and (and (and (and (and (and (= (O_node var2) var1) (= (node var6 var5 var4) var2)) (= nullAddr var0)) (= (read var3 var7) var1)) (not (= var7 var0))) (<= 0 (+ (+ var4 (* (- 1) var5)) (- 1)))) (valid var3 var7))))))
(assert (forall ((var0 Int) (var1 Int) (var2 node) (var3 HeapObject) (var4 Addr) (var5 Addr) (var6 Heap)) (not (and (inv_main_15 var6 var5) (and (and (and (and (and (and (and (= nullAddr var4) (= (read var6 var5) var3)) (= (getnode var3) var2)) (= (|node::order| var2) var1)) (= (|node::stock| var2) var0)) (not (= var5 var4))) (<= 0 (+ (+ var1 (* (- 1) var0)) (- 1)))) (not (valid var6 var5)))))))
(assert (forall ((var0 HeapObject) (var1 node) (var2 Int) (var3 Addr) (var4 Addr) (var5 Heap) (var6 Int) (var7 Int) (var8 Addr) (var9 Addr)) (or (not (and (and (Inv_Heap_exp_exp var9 var8 var7 var6) (inv_main584_5 var5 var4 var9)) (and (and (and (and (and (and (and (not (= var3 var9)) (<= 0 (+ (+ (* (- 1) var7) var2) (- 1)))) (<= 0 var2)) (= (O_node var1) var0)) (= (node var8 var7 var6) var1)) (= nullAddr var3)) (= (read var5 var9) var0)) (valid var5 var9)))) (inv_main584_5 var5 var4 var9))))
(assert (forall ((var0 node) (var1 HeapObject) (var2 Int) (var3 Int) (var4 Addr) (var5 Addr) (var6 Addr) (var7 Heap)) (or (not (and (inv_main584_5 var7 var6 var5) (and (and (and (and (and (and (and (not (= var4 var5)) (<= 0 (+ (+ (* (- 1) var3) var2) (- 1)))) (<= 0 var2)) (= nullAddr var4)) (= (read var7 var5) var1)) (= (getnode var1) var0)) (= (|node::stock| var0) var3)) (not (valid var7 var5))))) (inv_main584_5 var7 var6 var5))))
(assert (forall ((var0 Addr) (var1 Addr) (var2 Addr) (var3 Heap)) (or (not (and (inv_main584_5 var3 var2 var1) (and (not (= var1 var0)) (= nullAddr var0)))) (inv_main584_5 var3 var2 var1))))
(assert (forall ((var0 Int) (var1 Addr) (var2 HeapObject) (var3 node) (var4 Addr) (var5 Heap) (var6 Int) (var7 Int) (var8 Addr) (var9 Addr)) (or (not (and (and (Inv_Heap_exp_exp var9 var8 var7 var6) (inv_main584_5 var5 var4 var9)) (and (and (and (and (and (and (= (O_node var3) var2) (= (node var8 var7 var6) var3)) (= nullAddr var1)) (not (<= 0 (+ (- 1) (* (- 1) var0))))) (not (= var9 var1))) (= (read var5 var9) var2)) (valid var5 var9)))) (_Glue0 var0 var4 var5 var9 var2))))
(assert (forall ((var0 HeapObject) (var1 Int) (var2 Addr) (var3 Addr) (var4 Addr) (var5 Heap)) (or (not (and (inv_main584_5 var5 var4 var3) (and (and (and (and (= nullAddr var2) (not (<= 0 (+ (- 1) (* (- 1) var1))))) (not (= var3 var2))) (= (read var5 var3) var0)) (not (valid var5 var3))))) (_Glue0 var1 var4 var5 var3 var0))))
(assert (forall ((var0 Int) (var1 Addr) (var2 node) (var3 HeapObject) (var4 Addr) (var5 Heap) (var6 Addr) (var7 Int)) (or (not (and (_Glue0 var7 var6 var5 var4 var3) (and (and (and (and (= (getnode var3) var2) (= (|node::next| var2) var1)) (= (|node::stock| var2) var0)) (not (<= 0 (+ (+ var7 (* (- 1) var0)) (- 1))))) (valid var5 var4)))) (Inv_Heap_exp_exp var4 var1 var0 var7))))
(assert (forall ((var0 node) (var1 Heap) (var2 HeapObject) (var3 node) (var4 Int) (var5 Addr) (var6 HeapObject) (var7 node) (var8 HeapObject) (var9 Heap) (var10 Addr) (var11 Int) (var12 Int) (var13 Int) (var14 Addr) (var15 Addr)) (or (not (and (and (Inv_Heap_exp_exp var15 var14 var13 var12) (_Glue0 var11 var10 var9 var15 var8)) (and (and (and (and (and (and (and (and (and (and (= (O_node var7) var6) (= (node var5 var4 var11) var3)) (= (O_node var3) var2)) (= (node var14 var13 var12) var7)) (= (read var1 var15) var6)) (valid var1 var15)) (= (getnode var8) var0)) (= (|node::next| var0) var5)) (= (|node::stock| var0) var4)) (not (<= 0 (+ (+ var11 (* (- 1) var4)) (- 1))))) (= (write var9 var15 var2) var1)))) (_Glue2 var1 var10 var15 var6))))
(assert (forall ((var0 HeapObject) (var1 node) (var2 Int) (var3 Addr) (var4 node) (var5 HeapObject) (var6 Heap) (var7 HeapObject) (var8 Addr) (var9 Heap) (var10 Addr) (var11 Int)) (or (not (and (_Glue0 var11 var10 var9 var8 var7) (and (and (and (and (and (and (and (and (= (read var6 var8) var5) (not (valid var6 var8))) (= (getnode var7) var4)) (= (|node::next| var4) var3)) (= (|node::stock| var4) var2)) (not (<= 0 (+ (+ var11 (* (- 1) var2)) (- 1))))) (= (node var3 var2 var11) var1)) (= (O_node var1) var0)) (= (write var9 var8 var0) var6)))) (_Glue2 var6 var10 var8 var5))))
(assert (forall ((var0 Int) (var1 Int) (var2 Addr) (var3 node) (var4 HeapObject) (var5 Addr) (var6 Addr) (var7 Heap)) (or (not (and (_Glue2 var7 var6 var5 var4) (and (and (and (and (= (getnode var4) var3) (= (|node::next| var3) var2)) (= (|node::order| var3) var1)) (= (|node::stock| var3) var0)) (valid var7 var5)))) (Inv_Heap_exp_exp var5 var2 var0 var1))))
(assert (forall ((var0 node) (var1 Heap) (var2 HeapObject) (var3 node) (var4 Int) (var5 Int) (var6 Addr) (var7 HeapObject) (var8 node) (var9 HeapObject) (var10 Addr) (var11 Heap) (var12 Int) (var13 Int) (var14 Addr) (var15 Addr)) (or (not (and (and (Inv_Heap_exp_exp var15 var14 var13 var12) (_Glue2 var11 var10 var15 var9)) (and (and (and (and (and (and (and (and (and (and (= (O_node var8) var7) (= (node var6 var5 var4) var3)) (= (O_node var3) var2)) (= (node var14 var13 var12) var8)) (= (read var1 var15) var7)) (valid var1 var15)) (= (getnode var9) var0)) (= (|node::next| var0) var6)) (= (|node::order| var0) var4)) (= (|node::stock| var0) var5)) (= (write var11 var15 var2) var1)))) (inv_main584_5 var1 var10 var14))))
(assert (forall ((var0 HeapObject) (var1 node) (var2 Int) (var3 Int) (var4 Addr) (var5 node) (var6 Addr) (var7 node) (var8 HeapObject) (var9 Heap) (var10 HeapObject) (var11 Addr) (var12 Addr) (var13 Heap)) (or (not (and (_Glue2 var13 var12 var11 var10) (and (and (and (and (and (and (and (and (and (and (= (read var9 var11) var8) (= (getnode var8) var7)) (= (|node::next| var7) var6)) (not (valid var9 var11))) (= (getnode var10) var5)) (= (|node::next| var5) var4)) (= (|node::order| var5) var3)) (= (|node::stock| var5) var2)) (= (node var4 var2 var3) var1)) (= (O_node var1) var0)) (= (write var13 var11 var0) var9)))) (inv_main584_5 var9 var12 var6))))
(assert (forall ((var0 Addr) (var1 Addr) (var2 Heap)) (or (not (and (inv_main584_5 var2 var1 var0) (= nullAddr var0))) (inv_main_15 var2 var1))))
(assert (forall ((var0 Addr) (var1 HeapObject) (var2 node) (var3 Heap) (var4 Int) (var5 Int) (var6 Addr) (var7 Addr)) (or (not (and (and (Inv_Heap_exp_exp var7 var6 var5 var4) (inv_main_15 var3 var7)) (and (and (and (and (and (and (= (O_node var2) var1) (= (node var6 var5 var4) var2)) (= (read var3 var7) var1)) (= nullAddr var0)) (not (= var7 var0))) (<= 0 (+ (+ var4 (* (- 1) var5)) (- 1)))) (valid var3 var7)))) (inv_main_15 var3 var6))))
(assert (forall ((var0 Int) (var1 Int) (var2 Addr) (var3 Addr) (var4 node) (var5 HeapObject) (var6 Addr) (var7 Heap)) (or (not (and (inv_main_15 var7 var6) (and (and (and (and (and (and (and (and (= (read var7 var6) var5) (= (getnode var5) var4)) (= (|node::next| var4) var3)) (= nullAddr var2)) (= (|node::order| var4) var1)) (= (|node::stock| var4) var0)) (not (= var6 var2))) (<= 0 (+ (+ var1 (* (- 1) var0)) (- 1)))) (not (valid var7 var6))))) (inv_main_15 var7 var3))))
(assert (forall ((var0 Addr) (var1 HeapObject) (var2 node) (var3 Heap) (var4 Int) (var5 Int) (var6 Addr) (var7 Addr)) (or (not (and (and (Inv_Heap_exp_exp var7 var6 var5 var4) (inv_main_15 var3 var7)) (and (and (and (and (and (and (= (O_node var2) var1) (= (node var6 var5 var4) var2)) (= nullAddr var0)) (= (read var3 var7) var1)) (not (= var7 var0))) (not (<= 0 (+ (+ var4 (* (- 1) var5)) (- 1))))) (valid var3 var7)))) (inv_main_15 var3 var6))))
(assert (forall ((var0 Addr) (var1 Int) (var2 Int) (var3 node) (var4 HeapObject) (var5 Addr) (var6 Addr) (var7 Heap)) (or (not (and (inv_main_15 var7 var6) (and (and (and (and (and (and (and (and (= nullAddr var5) (= (read var7 var6) var4)) (= (getnode var4) var3)) (= (|node::order| var3) var2)) (= (|node::stock| var3) var1)) (= (|node::next| var3) var0)) (not (= var6 var5))) (not (<= 0 (+ (+ var2 (* (- 1) var1)) (- 1))))) (not (valid var7 var6))))) (inv_main_15 var7 var0))))
(assert (forall ((var0 AllocResHeap) (var1 Int) (var2 Int) (var3 Int) (var4 Addr) (var5 HeapObject) (var6 node) (var7 Addr) (var8 Heap)) (or (not (and (inv_main574_5_1 var8 var7) (and (and (and (= (O_node var6) var5) (= (node var4 var3 var2) var6)) (not (<= 0 (+ (- 1) (* (- 1) var1))))) (= (alloc var8 var5) var0)))) (Inv_Heap_exp_exp (newAddr var0) var4 var3 var2))))
(assert (forall ((var0 Int) (var1 AllocResHeap) (var2 Heap) (var3 HeapObject) (var4 node) (var5 HeapObject) (var6 node) (var7 Addr) (var8 Heap) (var9 Int) (var10 Int) (var11 Addr) (var12 Addr)) (or (not (and (and (Inv_Heap_exp_exp var12 var11 var10 var9) (inv_main574_5_1 var8 var7)) (and (and (and (and (and (and (and (= (O_node var6) var5) (= (O_node var4) var3)) (= (AllocResHeap var2 var12) var1)) (= (node var11 var10 var9) var6)) (= (read var2 var12) var5)) (valid var2 var12)) (not (<= 0 (+ (- 1) (* (- 1) var0))))) (= (alloc var8 var3) var1)))) (_Glue5 var7 var0 var12 var2 var5))))
(assert (forall ((var0 Int) (var1 AllocResHeap) (var2 HeapObject) (var3 node) (var4 HeapObject) (var5 Addr) (var6 Heap) (var7 Addr) (var8 Heap)) (or (not (and (inv_main574_5_1 var8 var7) (and (and (and (and (and (= (read var6 var5) var4) (not (valid var6 var5))) (= (O_node var3) var2)) (= (AllocResHeap var6 var5) var1)) (not (<= 0 (+ (- 1) (* (- 1) var0))))) (= (alloc var8 var2) var1)))) (_Glue5 var7 var0 var5 var6 var4))))
(assert (forall ((var0 Int) (var1 Addr) (var2 node) (var3 HeapObject) (var4 Heap) (var5 Addr) (var6 Int) (var7 Addr)) (or (not (and (_Glue5 var7 var6 var5 var4 var3) (and (and (and (= (getnode var3) var2) (= (|node::next| var2) var1)) (= (|node::order| var2) var0)) (valid var4 var5)))) (Inv_Heap_exp_exp var5 var1 var6 var0))))
(assert (forall ((var0 node) (var1 Heap) (var2 HeapObject) (var3 node) (var4 Int) (var5 Addr) (var6 HeapObject) (var7 node) (var8 HeapObject) (var9 Heap) (var10 Int) (var11 Addr) (var12 Int) (var13 Int) (var14 Addr) (var15 Addr)) (or (not (and (and (Inv_Heap_exp_exp var15 var14 var13 var12) (_Glue5 var11 var10 var15 var9 var8)) (and (and (and (and (and (and (and (and (and (= (O_node var7) var6) (= (node var5 var10 var4) var3)) (= (O_node var3) var2)) (= (node var14 var13 var12) var7)) (= (read var1 var15) var6)) (valid var1 var15)) (= (getnode var8) var0)) (= (|node::next| var0) var5)) (= (|node::order| var0) var4)) (= (write var9 var15 var2) var1)))) (_Glue7 var1 var11 var15 var6))))
(assert (forall ((var0 HeapObject) (var1 node) (var2 Int) (var3 Addr) (var4 node) (var5 HeapObject) (var6 Heap) (var7 HeapObject) (var8 Heap) (var9 Addr) (var10 Int) (var11 Addr)) (or (not (and (_Glue5 var11 var10 var9 var8 var7) (and (and (and (and (and (and (and (= (read var6 var9) var5) (not (valid var6 var9))) (= (getnode var7) var4)) (= (|node::next| var4) var3)) (= (|node::order| var4) var2)) (= (node var3 var10 var2) var1)) (= (O_node var1) var0)) (= (write var8 var9 var0) var6)))) (_Glue7 var6 var11 var9 var5))))
(assert (forall ((var0 Int) (var1 Int) (var2 Addr) (var3 node) (var4 HeapObject) (var5 Addr) (var6 Addr) (var7 Heap)) (or (not (and (_Glue7 var7 var6 var5 var4) (and (and (and (and (= (getnode var4) var3) (= (|node::next| var3) var2)) (= (|node::stock| var3) var1)) (valid var7 var5)) (= var0 0)))) (Inv_Heap_exp_exp var5 var2 var1 var0))))
(assert (forall ((var0 node) (var1 Heap) (var2 HeapObject) (var3 node) (var4 Int) (var5 Addr) (var6 HeapObject) (var7 node) (var8 HeapObject) (var9 Addr) (var10 Heap) (var11 Int) (var12 Int) (var13 Addr) (var14 Addr)) (or (not (and (and (Inv_Heap_exp_exp var14 var13 var12 var11) (_Glue7 var10 var9 var14 var8)) (and (and (and (and (and (and (and (and (and (= (O_node var7) var6) (= (node var5 var4 0) var3)) (= (O_node var3) var2)) (= (node var13 var12 var11) var7)) (= (read var1 var14) var6)) (valid var1 var14)) (= (getnode var8) var0)) (= (|node::next| var0) var5)) (= (|node::stock| var0) var4)) (= (write var10 var14 var2) var1)))) (_Glue9 var1 var9 var14 var6))))
(assert (forall ((var0 HeapObject) (var1 node) (var2 Int) (var3 Addr) (var4 node) (var5 HeapObject) (var6 Heap) (var7 HeapObject) (var8 Addr) (var9 Addr) (var10 Heap)) (or (not (and (_Glue7 var10 var9 var8 var7) (and (and (and (and (and (and (and (= (read var6 var8) var5) (not (valid var6 var8))) (= (getnode var7) var4)) (= (|node::next| var4) var3)) (= (|node::stock| var4) var2)) (= (node var3 var2 0) var1)) (= (O_node var1) var0)) (= (write var10 var8 var0) var6)))) (_Glue9 var6 var9 var8 var5))))
(assert (forall ((var0 Int) (var1 Int) (var2 node) (var3 HeapObject) (var4 Addr) (var5 Addr) (var6 Heap)) (or (not (and (_Glue9 var6 var5 var4 var3) (and (and (and (= (getnode var3) var2) (= (|node::stock| var2) var1)) (= (|node::order| var2) var0)) (valid var6 var4)))) (Inv_Heap_exp_exp var4 var5 var1 var0))))
(assert (forall ((var0 Heap) (var1 HeapObject) (var2 node) (var3 Int) (var4 Int) (var5 node) (var6 HeapObject) (var7 Addr) (var8 Addr) (var9 Heap)) (or (not (and (_Glue9 var9 var8 var7 var6) (and (and (and (and (and (= (getnode var6) var5) (= (|node::stock| var5) var4)) (= (|node::order| var5) var3)) (= (node var8 var4 var3) var2)) (= (O_node var2) var1)) (= (write var9 var7 var1) var0)))) (inv_main574_5_1 var0 var7))))
(assert (forall ((var0 Heap) (var1 Addr)) (or (not (and (= nullAddr var1) (= emptyHeap var0))) (inv_main574_5_1 var0 var1))))
(check-sat)
